GLPSOL: GLPK LP/MIP Solver, v4.55
Parameter(s) specified in the command line:
 -m tmp.mod
Reading model section from tmp.mod...
Reading data section from tmp.mod...
3660 lines were read
Generating obj...
Generating kirhoff...
Generating init_charge...
Generating batt_size...
Model has been successfully generated
GLPK Simplex Optimizer, v4.55
4333 rows, 5752 columns, 11632 non-zeros
Preprocessing...
2805 rows, 5631 columns, 11433 non-zeros
Scaling...
 A: min|aij| =  1.000e+00  max|aij| =  1.000e+00  ratio =  1.000e+00
Problem data seem to be well scaled
Constructing initial basis...
Size of triangular part is 2165
      0: obj =   0.000000000e+00  infeas =  3.755e+03 (640)
    500: obj =   9.500000000e+01  infeas =  1.520e+03 (433)
*   878: obj =   3.620000000e+02  infeas =  0.000e+00 (396)
*   956: obj =   2.800000000e+02  infeas =  0.000e+00 (394)
OPTIMAL LP SOLUTION FOUND
Time used:   0.2 secs
Memory used: 11.8 Mb (12371032 bytes)
#OUTPUT:
280
-83 -81 -1 -74 -74 -37 20 -50 -4 0 0 -7 -5 0 0 10 0 0 -1 -71 -83 0 1 5 -71 0 -1 0 -4 0 0 0 0 0 -6 0 0 3 0 0 9 14 0 0 0 0 0 1 0 0 0 0 0 -60 0 0 -53 0 -9 -8 0 9 -14 0 0 0 1 -6 -26 0 0 0 0 0 -4 0 0 0 -38 0 0 -5 0 0 0 0 -2 0 0 0 0 7 0 3 0 0 0 0 0 0 0 0 0 3 0 0 0 0 0 0 0 0 -35 0 -4 0 0 1 0 0 1 9 0 -1 0 0 0 0 0 -10 -8 0 -3 1 0 0 0 -6 4 0 0 0 0 0 0 0 0 0 0 0 -5 0 0 0 0 0 -1 0 0 0 -26 0 0 -1 0 0 0 0 -1 0 0 0 0 0 0 0 0 0 0 -7 0 0 0 0 0 0 0 -8 0 0 0 3 0 0 0 -1 -3 0 0 0 -1 0 -8 -2 9 0 0 0 0 -1 10 0 0 0 -3 0 1 0 6 0 0 0 0 5 0 19 0 0 0 0 12 0 0 3 0 5 0 1 0 0 6 0 0 12 0 0 0 0 3 5 0 -12 1 0 -71 0 0 34 11 -12 -3 3 26 8 0 -4 0 -5 0 26 0 0 0 0 0 3 -6 7 -7 0 3 1 8 2 -9 10 1 -10 0 0 3 0 -1 0 -6 0 -24 0 -12 5 -5 -3 -5 0 0 -1 0 -1 -5 -12 0 0 0 0 0 0 0 0 0 0 0 0 0 0 0 0 0 0 0 0 0 0 0 0 0 0 0 0 0 0 0 0 0 0 0 0 0 0 0 0 0 0 0 0 0 0 0 0 0 0 0 0 0 0 0 0 0 0 0 0 0 0 0 0 0 0 0 0 0 0 0 0 0 0 0 0 0 0 0 0 0 0 0 0 0 0 0 0 
-83 -81 -8 -82 -82 -68 2 -66 -8 0 -1 -7 -5 -1 0 21 0 0 -32 -11 -83 2 0 0 -38 2 3 6 0 1 0 0 2 0 -6 2 0 -40 0 0 -58 21 -2 3 0 0 0 1 0 0 0 -2 -5 -81 -1 0 -4 4 -71 -26 0 9 -34 0 0 -67 1 -6 0 0 2 0 0 2 0 -2 0 0 -40 0 -3 -5 -3 2 0 0 1 0 0 0 0 -2 0 2 0 0 0 0 -4 2 0 0 0 -5 -31 0 0 -3 0 -33 7 -67 -28 0 0 1 0 1 0 0 -4 -9 0 -77 -42 -42 0 0 0 -17 0 30 0 -6 0 0 0 3 0 -1 0 -1 0 0 0 0 0 0 -33 4 0 0 0 0 0 0 -77 0 1 -85 25 0 0 2 0 0 0 0 2 0 0 0 26 1 1 3 0 0 -36 -2 0 0 0 0 -1 0 0 0 2 -4 0 0 0 5 0 2 0 -37 -37 0 6 0 0 1 9 -2 7 0 0 4 17 0 -42 4 0 -26 1 0 1 0 0 0 0 0 0 6 0 0 2 -2 0 0 1 7 0 0 0 2 1 0 4 0 -72 39 0 2 -36 6 -6 0 8 -47 3 -26 71 4 2 27 5 0 0 0 -20 0 -30 0 1 -6 -4 -25 0 -26 0 0 -2 -3 3 -2 -2 -1 0 -6 0 -1 -9 10 -4 -17 -4 -2 2 26 -1 0 -3 1 -6 2 0 -1 0 -7 0 0 -4 2 -1 1 -5 -39 -2 0 0 0 0 0 0 0 0 0 0 0 0 0 0 0 0 0 0 0 0 0 0 0 0 0 0 0 0 0 0 0 0 0 0 0 0 0 0 0 0 0 0 0 0 0 0 0 0 0 0 0 0 0 0 0 0 0 0 0 0 0 0 0 0 0 0 0 0 0 0 0 0 0 0 0 0 0 0 0 0 0 0 0 0 0 0 0 
-54 -39 0 -1 0 -47 -7 0 0 0 0 0 0 0 0 0 -1 0 0 0 -44 0 0 0 -44 0 0 0 0 0 0 0 0 -1 0 0 0 0 0 0 0 0 -39 0 0 0 0 0 0 0 0 0 0 0 0 0 -4 0 -44 0 0 0 0 0 0 0 0 0 0 0 0 0 0 0 0 0 0 0 0 0 -3 0 0 0 0 0 0 0 0 0 0 0 0 0 0 0 0 0 0 0 0 0 0 0 0 0 0 -3 0 0 0 0 -1 0 0 -3 0 1 0 0 -2 0 0 0 0 0 0 0 0 0 3 0 0 0 0 0 0 0 0 0 0 0 0 0 0 0 0 0 0 0 0 0 0 0 0 0 0 0 0 0 0 0 0 0 0 0 0 0 0 0 0 0 0 0 0 -1 0 0 0 0 0 0 0 0 0 0 0 0 0 0 0 0 0 0 0 0 0 0 0 0 0 0 0 0 0 0 0 0 0 4 0 0 0 0 0 0 1 0 0 0 0 0 0 0 0 -5 0 0 0 0 0 0 45 0 0 0 0 0 0 0 0 0 0 0 0 0 0 0 0 0 0 -44 0 0 0 0 0 0 0 0 0 0 3 -3 0 0 0 0 0 0 0 0 0 0 0 0 0 0 0 0 0 0 0 0 0 0 -4 0 0 0 0 0 -1 0 0 0 0 0 0 -40 -5 0 0 0 0 0 0 0 0 0 0 0 0 0 0 0 0 0 0 0 0 0 0 0 0 0 0 0 0 0 0 0 0 0 0 0 0 0 0 0 0 0 0 0 0 0 0 0 0 0 0 0 0 0 0 0 0 0 0 0 0 0 0 0 0 0 0 0 0 0 0 0 0 0 0 0 0 0 0 0 0 0 0 0 0 0 0 0 0 0 0 0 0 0 0 0 0 0 
8 0 8 -11 0 0 0 0 8 0 -11 0 0 0 0 8 0 0 0 0 0 0 0 0 0 0 0 0 0 0 0 0 0 0 0 0 0 0 0 0 0 0 0 0 0 0 0 0 0 0 0 0 0 0 0 0 0 0 0 0 0 0 0 0 0 0 0 0 0 0 0 0 0 0 0 0 0 0 0 11 0 0 0 0 0 0 0 0 0 0 0 0 0 0 0 0 0 0 0 0 0 0 0 0 0 0 0 0 0 0 0 0 -1 0 0 0 0 0 0 0 0 0 0 0 0 0 0 0 0 0 0 0 0 0 0 0 0 0 0 0 0 0 0 0 0 0 0 0 0 11 0 0 0 0 0 0 0 0 0 0 0 0 0 0 0 0 0 0 0 0 0 0 0 -1 -1 0 0 0 0 0 0 0 0 0 0 0 0 0 0 0 0 0 0 0 0 0 0 0 0 0 0 0 0 0 0 0 0 0 0 0 0 0 0 0 0 0 1 0 0 0 0 0 0 0 0 0 0 0 0 0 0 0 0 0 0 0 0 0 0 0 -1 0 0 0 0 0 0 0 0 0 0 0 0 0 0 0 0 0 0 0 0 0 1 0 0 0 0 1 -11 0 0 0 0 0 0 0 0 0 0 0 0 0 0 0 0 0 0 0 0 0 0 0 -1 0 0 0 0 0 0 0 0 0 0 0 0 0 0 0 1 0 0 0 0 0 0 0 0 0 0 0 0 0 0 0 0 0 0 0 0 0 0 0 0 0 0 0 0 0 0 0 0 0 0 0 0 0 0 0 0 0 0 0 0 0 0 0 0 0 0 0 0 0 0 0 0 0 0 0 0 0 0 0 0 0 0 0 0 0 0 0 0 0 0 0 0 0 0 0 0 0 0 0 0 0 0 0 0 0 
1 0 1 -16 -5 0 0 0 1 0 -11 0 0 0 0 1 0 0 0 0 0 0 0 0 0 0 0 0 0 0 0 0 0 0 0 0 0 0 0 0 0 0 0 0 0 0 0 0 0 0 0 0 0 -5 0 0 0 0 0 0 0 0 0 0 0 0 0 0 0 0 0 0 0 0 0 0 0 0 0 11 0 0 0 0 0 0 0 0 0 0 0 0 0 0 0 0 0 0 0 0 0 0 0 0 0 0 0 0 0 0 0 0 -1 0 0 0 0 0 0 0 0 0 0 0 0 0 0 0 0 0 0 0 0 0 0 0 0 0 0 0 0 0 0 0 0 0 0 0 0 11 0 0 0 0 0 0 0 0 0 0 0 0 0 0 0 0 0 0 0 0 0 0 0 -1 -1 0 0 0 0 0 0 0 0 0 0 0 0 0 0 0 0 0 0 0 0 0 0 0 0 0 0 0 0 0 0 0 0 0 0 0 0 0 0 0 0 0 1 0 0 0 0 0 0 0 0 0 0 0 0 0 0 0 0 0 0 0 0 0 0 0 -1 0 0 0 0 0 0 0 0 0 0 0 0 0 0 0 0 0 0 0 0 0 1 0 0 0 0 1 -11 0 0 0 0 0 0 0 0 0 0 0 0 0 0 0 0 0 0 0 0 0 0 0 -1 0 0 0 0 0 0 0 0 0 0 0 0 0 0 0 1 0 0 0 0 0 0 0 0 0 0 0 0 0 0 0 0 0 0 0 0 0 0 0 0 0 0 0 0 0 0 0 0 0 0 0 0 0 0 0 0 0 0 0 0 0 0 0 0 0 0 0 0 0 0 0 0 0 0 0 0 0 0 0 0 0 0 0 0 0 0 0 0 0 0 0 0 0 0 0 0 0 0 0 0 0 0 0 0 0 
-31 0 -6 -24 -20 -13 -4 -74 -6 0 -1 0 0 -1 0 0 0 0 -1 -9 0 0 0 0 0 0 0 -3 0 -3 0 0 0 0 0 0 0 0 0 0 0 0 0 -1 0 0 -6 0 0 0 -3 0 45 0 0 0 -4 0 0 8 0 0 -2 0 0 0 0 0 -2 0 0 0 0 0 0 0 0 0 -18 0 0 -5 0 0 0 0 0 0 0 0 0 0 0 0 0 0 0 0 0 0 0 0 0 -3 0 0 -6 0 0 0 0 0 -5 0 0 0 0 -1 0 0 -4 0 0 0 0 0 0 0 -6 0 5 0 0 0 1 0 0 6 -4 0 0 0 0 0 0 0 0 0 0 0 0 0 0 0 0 0 0 0 0 0 -21 0 0 0 1 0 0 0 0 0 0 0 0 0 0 0 0 0 0 -20 0 0 0 0 0 0 0 8 0 0 0 -3 0 20 0 0 0 0 0 0 0 0 8 0 0 0 0 0 0 4 0 0 0 0 0 3 1 0 -1 0 0 0 0 0 0 0 0 0 0 0 0 0 0 0 0 0 0 0 0 0 0 0 0 0 0 0 0 0 -6 0 0 0 -1 0 0 0 0 4 0 0 0 0 26 -5 0 4 0 0 0 21 -1 0 0 0 0 -3 6 0 -20 0 0 0 -8 0 0 0 -4 0 0 0 0 -3 -1 0 0 1 0 0 0 0 0 0 0 0 0 0 0 0 0 0 0 0 0 0 0 0 0 0 0 0 0 0 0 0 0 0 0 0 0 0 0 0 0 0 0 0 0 0 0 0 0 0 0 0 0 0 0 0 0 0 0 0 0 0 0 0 0 0 0 0 0 0 0 0 0 0 0 0 0 0 0 0 0 0 0 0 0 0 0 0 0 0 0 0 0 0 0 0 0 0 0 0 0 0 0 0 0 0 
-20 -1 -5 -26 -4 -11 -2 -4 -5 0 -18 7 -5 0 0 -41 -4 0 0 0 0 0 1 -77 0 0 0 0 0 0 0 4 0 -4 -1 0 0 0 0 0 -9 39 0 -7 0 0 0 0 0 0 0 0 0 0 0 0 -4 -4 0 0 0 -9 36 0 0 0 0 -1 36 0 0 0 0 0 0 0 0 0 0 11 0 0 0 0 0 0 -1 0 0 0 0 7 0 0 0 0 0 0 4 0 0 0 0 0 0 0 0 0 0 0 5 0 -35 0 0 0 0 0 0 0 -1 0 0 0 0 0 0 0 0 -53 -2 0 0 0 0 0 0 0 4 0 0 0 0 0 0 0 0 4 0 11 -22 0 0 0 0 0 0 0 0 0 0 0 0 0 16 0 0 0 0 0 0 0 0 -1 -1 -4 0 0 0 -7 0 0 0 0 0 0 0 0 0 0 0 0 0 0 0 0 0 0 0 0 0 0 0 -1 -9 0 0 0 0 4 0 0 0 0 0 0 1 0 6 0 0 0 0 -77 0 -1 0 0 0 0 0 0 0 -7 0 -77 0 0 0 0 -1 0 0 0 0 0 0 0 0 1 0 7 1 0 0 -4 0 34 0 0 0 0 2 2 0 -4 0 1 -11 0 -16 0 4 5 0 0 0 7 -7 0 0 0 0 1 9 0 -4 0 0 0 0 0 -1 0 -6 0 1 0 0 0 0 7 -22 0 0 0 0 0 1 0 0 0 0 0 0 0 0 0 0 0 0 0 0 0 0 0 0 0 0 0 0 0 0 0 0 0 0 0 0 0 0 0 0 0 0 0 0 0 0 0 0 0 0 0 0 0 0 0 0 0 0 0 0 0 0 0 0 0 0 0 0 0 0 0 0 0 0 0 0 0 0 0 0 0 0 0 0 0 0 0 0 0 0 0 0 0 0 0 
#OUTPUT END
Model has been successfully processed
